c Random 3-CNF over 20 variables and 200 clauses
c Generated with `cnfgen`
c (C) 2012-2018 Massimo Lauria <lauria.massimo@gmail.com>
c https://massimolauria.github.io/cnfgen
c
c COMMAND LINE: cnfgen -of dimacs -o f randkcnf 3 20 200
c
p cnf 20 200
-4 15 16 0
9 -13 14 0
-9 -15 17 0
6 -13 -15 0
-12 14 -17 0
-1 -15 -16 0
1 -5 -14 0
1 -8 -9 0
15 17 -18 0
7 12 -20 0
-2 -6 -19 0
6 -11 -16 0
4 6 -18 0
-2 -4 -14 0
-2 -16 19 0
11 16 -19 0
5 14 15 0
-4 -14 15 0
6 -10 12 0
6 11 17 0
1 9 -18 0
4 -5 -14 0
-2 -3 -4 0
-8 12 -19 0
2 -7 -16 0
-4 5 19 0
-3 11 -12 0
7 -11 18 0
-7 11 -17 0
-4 -9 -16 0
-1 -6 -11 0
-2 4 12 0
3 16 20 0
4 -6 14 0
6 -12 14 0
-3 -5 -12 0
2 -6 9 0
2 11 -20 0
-2 8 20 0
-14 -15 20 0
-1 -8 12 0
4 6 14 0
-9 12 20 0
-11 13 -18 0
5 11 -12 0
-6 19 -20 0
3 15 -18 0
2 6 19 0
-5 6 -11 0
-12 18 20 0
2 4 -16 0
6 8 -9 0
9 -11 18 0
1 -6 15 0
-2 15 -17 0
2 10 20 0
-6 -10 -20 0
1 -2 5 0
4 -7 14 0
2 7 -17 0
-1 -6 9 0
7 -10 -12 0
-5 -17 19 0
1 2 -19 0
-10 -11 -20 0
-13 -14 -17 0
2 -3 -6 0
9 14 17 0
9 10 16 0
-1 -8 18 0
6 12 15 0
-8 -10 13 0
-2 12 16 0
-11 12 18 0
7 -17 -18 0
-6 8 -13 0
8 -9 13 0
4 -12 -17 0
-5 -17 -19 0
-1 2 -18 0
-6 9 19 0
-3 -4 16 0
-3 -11 13 0
-3 -10 15 0
3 -5 -15 0
5 11 -20 0
1 -9 -20 0
-5 8 -11 0
-1 6 -15 0
-6 10 -19 0
-10 -12 16 0
2 -7 14 0
6 -10 -17 0
-2 -9 10 0
3 -15 -19 0
1 -11 -14 0
2 3 12 0
-6 13 16 0
6 -7 14 0
6 -15 -18 0
-11 -17 18 0
-1 -2 -7 0
3 6 -13 0
6 10 14 0
-11 12 -14 0
5 6 -15 0
-3 18 -20 0
5 -7 -10 0
-3 11 -20 0
-1 -3 -20 0
-10 -11 14 0
-3 -6 -14 0
1 13 -19 0
2 8 16 0
-6 -7 -10 0
-6 14 20 0
-3 5 -9 0
-1 6 -20 0
-3 -5 8 0
8 -10 16 0
-12 13 -16 0
3 12 -13 0
-2 11 -16 0
-5 8 16 0
-9 16 17 0
3 -16 -19 0
-8 -17 -18 0
-6 -13 19 0
-3 -16 18 0
-1 -2 -12 0
3 4 20 0
-12 17 19 0
18 -19 20 0
2 17 -18 0
1 -11 16 0
-9 -12 18 0
-5 13 -16 0
4 -15 19 0
6 -10 -16 0
4 8 -20 0
-3 -7 -16 0
9 -10 13 0
-5 -11 -12 0
-7 13 15 0
-4 -7 -15 0
-7 8 12 0
-4 -7 20 0
-3 -16 -18 0
-11 -12 -15 0
-5 -14 -18 0
2 -11 15 0
-10 -13 -17 0
9 10 15 0
-2 4 11 0
5 -7 -19 0
14 18 -19 0
2 10 -13 0
1 7 -14 0
-3 -6 18 0
-3 15 17 0
-4 10 14 0
8 13 -19 0
-3 -7 16 0
4 5 16 0
1 11 18 0
5 -12 14 0
7 -8 -17 0
-9 11 17 0
-6 10 18 0
9 15 -18 0
4 -5 -11 0
6 11 16 0
-1 -3 -7 0
4 9 16 0
7 -9 15 0
4 -15 -20 0
-3 -5 13 0
-2 14 18 0
8 11 16 0
-1 4 -18 0
11 -17 18 0
-1 6 -16 0
-11 15 19 0
6 -10 17 0
3 -6 8 0
5 -8 18 0
-10 11 -16 0
-4 -19 -20 0
2 -8 17 0
-2 -16 17 0
-1 -3 14 0
-12 -14 20 0
-1 18 -19 0
-5 -12 18 0
9 14 19 0
2 7 -8 0
3 -4 13 0
-11 -16 -19 0
-3 9 11 0
-11 12 16 0
